10	5
0	8	4	10	6	2	3	7	5	1
1	1	9
2	0
3	1	9
4	1	8
5	0
6	1	10
7	1	6
8	1	11
9	1	11
10	1	11
11	0
0	0	0	0	0	0	0
1	8	2	0	0	3	0
2	2	3	0	5	0	5
3	5	0	1	3	4	0
4	3	5	0	2	5	1
5	8	0	1	0	1	0
6	1	0	1	0	4	0
7	5	0	0	5	3	5
8	6	0	4	5	0	0
9	10	1	0	1	0	5
10	7	0	0	0	0	5
11	0	0	0	0	0	0
5	5	5	5	5
